Route #1: 52 32 10 63 11 42 57
Route #2: 21 67 61 2 64 31 18
Route #3: 46 5 16 1 17 36 56
Route #4: 53 30 9 33 49 23 19 34
Route #5: 25 14 4 47 55 60 27 65
Route #6: 68 20 41 59 8 39 40 38
Route #7: 13 35 45 44 3 51 6 15
Route #8: 26 43 24 22 66 58 12 29
Route #9: 28 54 37 50 48 62 7
cost 1458.7890625